(declare-const X String)
; Host\x3a\dgpstool\x2eglobaladserver\x2ecomdesksearch\.dropspam\.com
(assert (str.in_re X (re.++ (str.to_re "Host:") (re.range "0" "9") (str.to_re "gpstool.globaladserver.comdesksearch.dropspam.com\u{a}"))))
; /\x2ewvx([\?\x5c\x2f]|$)/smiU
(assert (not (str.in_re X (re.++ (str.to_re "/.wvx") (re.union (str.to_re "?") (str.to_re "\u{5c}") (str.to_re "/")) (str.to_re "/smiU\u{a}")))))
(check-sat)

(exit)
